c CNF file corresponding to a (partial) station packing problem.
p cnf 6030 229
1 2 3 4 5 6 7 8 9 10 11 12 13 14 0
-1 -2 0
-1 -3 0
-1 -4 0
-1 -5 0
-1 -6 0
-1 -7 0
-1 -8 0
-1 -9 0
-1 -10 0
-1 -11 0
-1 -12 0
-1 -13 0
-1 -14 0
-2 -3 0
-2 -4 0
-2 -5 0
-2 -6 0
-2 -7 0
-2 -8 0
-2 -9 0
-2 -10 0
-2 -11 0
-2 -12 0
-2 -13 0
-2 -14 0
-3 -4 0
-3 -5 0
-3 -6 0
-3 -7 0
-3 -8 0
-3 -9 0
-3 -10 0
-3 -11 0
-3 -12 0
-3 -13 0
-3 -14 0
-4 -5 0
-4 -6 0
-4 -7 0
-4 -8 0
-4 -9 0
-4 -10 0
-4 -11 0
-4 -12 0
-4 -13 0
-4 -14 0
-5 -6 0
-5 -7 0
-5 -8 0
-5 -9 0
-5 -10 0
-5 -11 0
-5 -12 0
-5 -13 0
-5 -14 0
-6 -7 0
-6 -8 0
-6 -9 0
-6 -10 0
-6 -11 0
-6 -12 0
-6 -13 0
-6 -14 0
-7 -8 0
-7 -9 0
-7 -10 0
-7 -11 0
-7 -12 0
-7 -13 0
-7 -14 0
-8 -9 0
-8 -10 0
-8 -11 0
-8 -12 0
-8 -13 0
-8 -14 0
-9 -10 0
-9 -11 0
-9 -12 0
-9 -13 0
-9 -14 0
-10 -11 0
-10 -12 0
-10 -13 0
-10 -14 0
-11 -12 0
-11 -13 0
-11 -14 0
-12 -13 0
-12 -14 0
-13 -14 0
6014 6015 6016 6017 6018 6019 6020 6021 6022 6023 6024 6025 6026 6027 6028 6029 6030 0
-6014 -6015 0
-6014 -6016 0
-6014 -6017 0
-6014 -6018 0
-6014 -6019 0
-6014 -6020 0
-6014 -6021 0
-6014 -6022 0
-6014 -6023 0
-6014 -6024 0
-6014 -6025 0
-6014 -6026 0
-6014 -6027 0
-6014 -6028 0
-6014 -6029 0
-6014 -6030 0
-6015 -6016 0
-6015 -6017 0
-6015 -6018 0
-6015 -6019 0
-6015 -6020 0
-6015 -6021 0
-6015 -6022 0
-6015 -6023 0
-6015 -6024 0
-6015 -6025 0
-6015 -6026 0
-6015 -6027 0
-6015 -6028 0
-6015 -6029 0
-6015 -6030 0
-6016 -6017 0
-6016 -6018 0
-6016 -6019 0
-6016 -6020 0
-6016 -6021 0
-6016 -6022 0
-6016 -6023 0
-6016 -6024 0
-6016 -6025 0
-6016 -6026 0
-6016 -6027 0
-6016 -6028 0
-6016 -6029 0
-6016 -6030 0
-6017 -6018 0
-6017 -6019 0
-6017 -6020 0
-6017 -6021 0
-6017 -6022 0
-6017 -6023 0
-6017 -6024 0
-6017 -6025 0
-6017 -6026 0
-6017 -6027 0
-6017 -6028 0
-6017 -6029 0
-6017 -6030 0
-6018 -6019 0
-6018 -6020 0
-6018 -6021 0
-6018 -6022 0
-6018 -6023 0
-6018 -6024 0
-6018 -6025 0
-6018 -6026 0
-6018 -6027 0
-6018 -6028 0
-6018 -6029 0
-6018 -6030 0
-6019 -6020 0
-6019 -6021 0
-6019 -6022 0
-6019 -6023 0
-6019 -6024 0
-6019 -6025 0
-6019 -6026 0
-6019 -6027 0
-6019 -6028 0
-6019 -6029 0
-6019 -6030 0
-6020 -6021 0
-6020 -6022 0
-6020 -6023 0
-6020 -6024 0
-6020 -6025 0
-6020 -6026 0
-6020 -6027 0
-6020 -6028 0
-6020 -6029 0
-6020 -6030 0
-6021 -6022 0
-6021 -6023 0
-6021 -6024 0
-6021 -6025 0
-6021 -6026 0
-6021 -6027 0
-6021 -6028 0
-6021 -6029 0
-6021 -6030 0
-6022 -6023 0
-6022 -6024 0
-6022 -6025 0
-6022 -6026 0
-6022 -6027 0
-6022 -6028 0
-6022 -6029 0
-6022 -6030 0
-6023 -6024 0
-6023 -6025 0
-6023 -6026 0
-6023 -6027 0
-6023 -6028 0
-6023 -6029 0
-6023 -6030 0
-6024 -6025 0
-6024 -6026 0
-6024 -6027 0
-6024 -6028 0
-6024 -6029 0
-6024 -6030 0
-6025 -6026 0
-6025 -6027 0
-6025 -6028 0
-6025 -6029 0
-6025 -6030 0
-6026 -6027 0
-6026 -6028 0
-6026 -6029 0
-6026 -6030 0
-6027 -6028 0
-6027 -6029 0
-6027 -6030 0
-6028 -6029 0
-6028 -6030 0
-6029 -6030 0
